404828.72
201 219 218 217 216 215 214 213 212 211 208 207 206 209 210 204 205 203 202 200 199 198 197 196 195 194 193 192 191 188 189 190 42 43 44 45 46 187 186 185 184 183 182 181 180 179 176 165 166 167 175 174 173 172 171 170 168 169 163 162 164 177 178 81 82 80 79 78 77 76 75 74 71 70 69 68 67 66 65 64 63 62 61 59 58 60 57 56 55 54 53 52 51 50 49 47 48 32 31 25 27 28 26 24 23 22 21 20 19 16 15 14 13 12 11 18 17 10 9 8 1350 7 5 4 6 3 1 2 0 2391 2390 2389 2388 1354 1355 1353 1352 1351 1349 1348 1347 1346 1345 1344 1343 1342 1341 1340 1338 1274 1339 1337 1336 1335 1334 1333 1332 1331 1330 1329 1327 1328 1394 1397 1396 1395 1390 1389 1386 1384 1385 1383 1382 1381 1387 1388 1391 1393 1392 1357 1356 1358 1359 1360 1361 1362 1363 1364 1380 1379 1378 1377 1376 1375 1374 1373 1372 1371 1370 1369 1368 1367 1366 1365 2387 2386 2385 2384 2383 2382 2381 2380 2379 2378 2377 2376 2375 2374 2373 2372 2369 2371 2370 2351 2352 2353 2354 2355 2356 2357 2358 2359 2360 2367 2368 2365 2364 2363 2366 2361 2362 29 30 34 35 33 37 36 38 39 40 41 2239 2238 2237 2234 2233 2232 2231 2230 2229 2228 2227 2226 2225 2224 2222 2221 2223 2258 2257 2256 2259 2254 2255 2253 2252 2251 2250 2249 2248 2247 2246 2245 2244 2235 2236 2243 2242 2241 2240 2350 2349 2348 2347 2345 2344 2346 2340 2343 2342 2341 2339 2338 2337 2336 2335 2333 2334 2332 2331 2330 2329 2328 2327 2326 2325 2324 2323 2322 2321 2320 2312 2313 2311 2310 2314 2315 2316 2317 2318 2319 2264 2262 2260 2261 2263 2265 2266 2267 2268 2269 2270 2275 2276 2277 2278 2279 2280 2281 2282 2284 2283 2290 2287 2286 2285 2309 2308 2307 2306 2305 2304 2303 2302 2301 2300 2297 2296 2288 2289 2293 2291 2292 2294 2295 2298 2299 1563 1562 1564 1565 1566 1567 1568 1569 1570 1571 1572 1573 1574 1575 1576 1577 1578 1579 1583 1580 1582 1581 1520 1521 1522 1524 1526 1533 1532 1534 1535 1536 1537 1538 1539 1540 1541 1542 1543 1544 1545 1547 1548 1546 1549 1550 1551 1552 1553 1554 1555 1556 1557 1558 1559 1560 1561 1530 1529 1531 1528 1527 1525 1523 1518 1519 1517 1516 1515 1514 1501 1512 1513 1511 1510 1509 1508 1507 1506 1505 1503 1502 1486 1487 1500 1499 1498 1497 1592 1591 1590 1589 1586 1584 1585 1587 1588 1598 1600 1601 1599 1597 1596 1595 1594 1593 1496 1493 1492 1495 1494 1491 1490 1489 1488 1485 1484 1483 1482 1481 1480 1504 1479 1478 1477 1475 1476 1474 1473 1472 1471 1470 1469 1468 1467 1466 1465 1464 1463 1462 1461 1460 1459 1455 1454 1453 1452 1451 1450 1449 1447 1446 1445 1441 1444 1443 1448 1442 1456 1457 1458 1439 1438 1440 1437 1436 1435 1434 1433 1432 1431 1430 1429 1428 1427 1426 1425 1424 1423 1422 1420 1419 1418 1421 1410 1409 1408 1411 1412 1405 1406 1407 1404 1413 1414 1403 1401 1399 1398 1326 1325 1324 1323 1322 1321 1400 1402 1415 1417 1416 1319 1320 1318 1317 1316 1315 1314 1313 1312 1311 1310 1309 1307 1305 1304 1306 1308 1303 1302 1301 1300 1299 1298 1297 1296 1295 1294 1293 1292 1291 1290 1289 1288 1287 1286 1285 1284 1283 1282 1281 1280 1279 1278 1277 1276 1275 1273 1272 1271 1270 1269 1268 1267 1266 1265 1264 1263 1262 1261 1260 1259 1258 1257 1256 1255 1254 1253 1252 1251 1250 1249 1248 1247 1246 1245 1244 73 72 1243 1242 1241 1240 1239 1238 1237 1236 1235 1234 1233 1232 1231 1230 1229 1228 1227 1226 1225 1224 1223 1222 1221 1220 1219 1218 1217 1216 1215 1213 1212 1211 1210 1209 1208 1207 1206 1205 1204 1203 1202 1201 1200 1199 1198 1197 1192 1194 1196 1195 1193 1191 1190 1189 1188 1187 1186 1185 1184 1183 1182 1181 1180 1179 1178 1175 1177 1176 1142 1143 1171 1174 1173 1172 1169 1168 1170 1149 1148 1150 1166 1167 1165 1164 1163 1162 1161 1160 1159 1158 1157 1156 1154 1155 1151 1153 1152 1147 1145 1146 1144 1141 1140 1139 1138 1137 1136 1135 1134 1133 1132 1131 1130 1129 1128 1127 1126 1125 1123 1124 1119 1120 1121 1122 1116 1118 1117 1115 1113 1114 116 117 115 114 113 112 111 110 109 108 107 106 105 104 103 102 100 1214 101 99 98 97 96 95 94 93 92 89 90 88 87 86 85 84 83 161 160 159 158 157 152 153 156 155 91 154 119 118 120 121 122 123 124 125 127 126 142 144 143 149 150 151 148 146 147 145 140 139 141 137 138 136 135 134 133 132 131 130 129 128 1110 1112 1111 1109 1108 1107 1106 1105 1104 1103 1102 1101 1100 1099 1098 1097 1096 1077 1078 1095 1094 1090 1089 1092 1091 1093 1087 1088 1086 1085 1084 1083 1082 1081 1080 1079 1076 1075 1074 1073 1072 1071 1070 1069 1068 1067 1066 1065 1064 1063 1062 1061 1059 1060 1058 1057 1056 1055 1054 1053 1052 1051 1050 1049 1048 1047 990 989 988 987 986 980 979 978 977 976 975 974 973 970 971 972 968 966 965 967 969 962 964 963 961 960 959 958 957 956 955 954 952 953 951 950 983 981 982 985 984 949 948 947 946 945 944 943 942 941 940 939 998 999 997 1000 1001 1002 996 995 994 993 992 991 1044 1045 1046 1037 1038 1039 1043 1042 1041 1040 1036 1035 1034 1033 1032 1031 1030 1029 1028 1027 1026 1025 328 329 330 331 332 333 1020 1021 1024 1023 1022 1014 1015 1013 1012 1011 1010 1008 1005 1003 1004 1006 1007 1009 1016 1019 1018 1017 389 390 391 392 393 395 396 397 398 399 400 401 402 403 404 405 406 407 408 409 410 932 934 936 938 937 935 933 931 930 929 928 927 926 925 924 923 922 921 920 919 916 918 879 880 881 917 883 882 884 912 915 914 913 910 909 911 890 889 891 907 908 906 905 904 903 902 901 900 899 898 897 895 896 892 894 893 888 885 886 887 826 827 828 829 832 831 830 825 824 823 822 821 820 819 818 817 816 814 813 812 810 811 815 834 835 833 836 837 838 839 840 849 848 451 452 847 846 845 844 841 842 843 809 808 807 806 805 804 803 802 801 800 799 797 798 796 795 794 793 771 770 769 768 767 766 765 761 762 760 772 759 758 757 756 754 753 752 751 755 763 764 750 749 748 747 746 745 742 741 740 739 738 737 736 735 734 733 732 731 730 729 728 726 725 727 724 723 722 721 720 719 718 717 716 715 714 712 713 743 744 709 711 710 708 707 706 705 704 703 702 701 700 699 698 697 696 695 694 693 692 691 690 689 688 687 686 685 684 683 682 681 678 677 679 680 778 779 782 781 780 777 776 775 774 773 786 787 790 792 791 789 788 785 784 783 668 669 670 671 672 673 676 675 674 617 616 618 615 614 613 619 620 621 622 623 624 626 627 628 629 635 636 634 633 630 631 632 666 667 665 664 662 663 661 660 659 658 657 656 655 652 651 653 654 646 645 644 643 642 641 640 639 638 637 568 567 566 565 564 563 562 561 582 581 580 579 575 576 577 578 569 625 570 571 572 573 574 604 605 610 612 611 609 608 607 606 599 600 602 603 601 593 592 591 594 595 596 598 597 1840 1839 1838 1837 1836 1835 1834 1833 1832 1831 1891 1892 1830 1829 1828 1827 1826 1825 1824 1823 1822 1821 1820 1916 1819 1818 1817 1816 1917 1918 1921 1920 1919 1915 1914 1913 1912 1925 1926 1929 1931 1930 1928 1927 1924 1923 1922 1806 1804 1803 1801 1802 1800 1799 1798 1797 1796 1795 1794 1791 1793 1785 1784 1781 1780 1779 1778 1775 1777 1776 1767 1765 1766 1768 1774 1773 1772 1769 1770 1771 1805 1807 1808 1809 1810 1811 1812 1815 1814 1813 1756 1755 1757 1754 1753 1752 1758 1759 1760 1761 1762 1763 1764 1709 1710 1711 1712 1713 1714 1718 1715 1716 1717 1708 1707 1706 1705 1704 1703 1702 1698 1699 1701 1700 1722 1721 1720 1719 1743 1742 1741 1740 1739 1738 1745 1744 1746 1749 1751 1750 1748 1747 1737 1736 1735 1734 1733 1732 1731 1730 1729 1728 1727 1726 1725 1724 1723 1697 1696 1694 1695 1693 1692 1691 1690 1689 1687 1686 1685 1688 1682 1684 1683 1681 1680 1678 1679 1782 1783 1786 1788 1789 1787 1792 1790 1946 1947 1948 1949 1950 1953 1952 1951 1943 1945 1944 1942 1941 1940 1939 1938 1936 1937 1935 1934 1933 1932 1908 1910 1909 1907 1906 1905 1904 1903 1902 1901 1899 1900 1911 1898 1897 1896 1895 1893 1894 1889 1890 1888 1887 1886 1885 1884 1881 1880 1879 1878 1877 1876 1875 1874 1873 1872 1871 1870 1869 1868 1867 1865 1864 1866 1861 1863 1862 1859 1860 1858 1857 1856 1855 1854 1853 1852 1851 1882 1883 1848 1850 1849 1847 1846 1844 1842 1841 1843 1845 590 589 588 587 586 583 585 584 560 559 558 557 555 556 554 553 552 551 550 548 547 546 545 544 543 549 542 541 539 540 647 648 649 650 456 455 454 453 457 458 459 460 461 462 463 464 465 449 450 448 447 446 445 444 443 441 442 854 855 853 852 851 850 863 864 865 862 861 868 867 866 869 860 859 870 872 874 875 878 877 876 411 412 413 414 873 871 858 856 857 416 415 417 418 419 420 421 422 423 425 394 424 426 427 428 429 430 431 432 433 434 435 436 437 440 439 438 476 475 474 469 470 471 473 472 466 467 468 525 524 527 523 522 521 528 526 529 530 531 532 533 534 535 536 537 538 519 518 520 517 516 515 514 513 512 511 510 509 508 507 506 505 2049 2050 2051 2052 2053 2054 2055 2056 2057 2059 2058 501 502 503 504 500 499 498 497 493 492 490 491 494 495 496 480 479 477 478 481 482 483 484 485 486 487 488 489 2062 2061 2060 2063 2066 2064 2065 2067 2068 2069 2070 2071 2072 2075 2076 2077 2078 2079 2080 2081 2082 2083 2084 2085 2086 2087 2088 2089 2090 2091 2012 2010 2009 2008 2007 2000 1999 1998 1995 1996 1997 2093 2092 2094 2095 2096 2097 2098 2099 2100 2103 2104 2105 2106 2107 2108 2109 2110 2111 2112 2113 2114 2117 2116 2115 2152 2151 2148 2150 2149 2143 2126 2125 2124 2123 2122 2121 2120 2118 2119 1993 1994 1992 1991 1990 1987 1988 1989 2002 2001 2003 2004 2006 2005 2011 2013 2014 2015 2016 2017 2022 2018 2019 2020 2021 2024 2023 2025 2031 2032 2048 2047 2046 2045 2044 2043 2042 2041 2040 2039 2038 2036 2035 2034 2037 2033 2030 2026 2028 2027 2029 1965 1964 1969 1966 1967 1968 1971 1970 1963 1962 1961 1960 1959 1958 1957 1956 1955 1954 1973 1974 1972 1975 1976 1977 1978 1979 1980 1981 1982 1983 1984 1985 1986 2127 2128 2129 2130 2131 2132 2133 2134 2135 2136 2137 2138 2139 2140 2141 2142 2144 2145 2147 2146 1664 1663 1662 1661 1660 1667 1666 1665 1668 1669 1670 1671 1672 1673 1674 1675 1676 1677 1658 1657 1659 1656 1655 1654 1653 1652 1651 1650 1649 1648 1647 1646 1645 1644 1643 1642 1641 1640 1639 1638 1637 1629 1630 1628 1627 1625 1626 1618 1617 2154 2153 2155 2156 2157 2158 2159 1615 1616 1619 1620 1621 1622 1623 1624 1631 1632 1633 1634 1636 1635 1613 1614 1612 1611 1610 1609 1608 1607 1606 1605 1604 1603 1602 2160 2161 2162 2163 2164 2165 2166 2167 2168 2169 2170 2171 2172 2173 2174 2175 2176 2177 2178 2179 2180 2181 2182 2183 2184 2185 2186 2187 2188 2101 2102 2189 2190 2191 2192 2193 2194 2195 2196 2197 2198 2199 2200 2201 2202 2203 2204 2205 2206 2207 2208 2209 2210 2211 2212 359 360 361 362 363 364 2073 2074 365 366 367 368 369 370 371 372 373 374 375 376 377 378 379 380 381 382 383 384 385 386 387 388 334 335 336 337 338 339 340 341 345 342 344 343 282 283 284 286 288 295 293 294 296 297 298 299 300 301 302 305 304 303 307 309 310 308 306 314 313 311 312 315 316 317 318 319 320 321 323 322 324 325 327 326 292 291 290 289 287 285 280 281 279 278 277 276 263 275 274 273 272 271 270 269 268 267 265 264 248 249 262 260 261 352 348 346 347 349 350 351 353 354 358 357 356 355 259 258 257 2216 2214 2272 2271 2274 2273 2213 2215 2217 2218 2219 2220 253 256 255 254 252 251 250 247 246 245 244 243 242 266 241 240 239 237 238 236 235 234 233 232 230 229 228 227 226 225 231 224 223 222 221 220